c This is QMaxSAT 2017 based on 14.07
c This is Glucose 3.0
c This is MiniSat 2.2.0
c WARNING: for repeatability, setting FPU to use double precision
c card = mrwto, comp = 0, pmodel = 0, narr = 8, mct = 29, verb = 0
cr firstCPXsol 0 0 0
c top = 167313
c |  Number of variables:    4185924                                          |
c |  Number of clauses:      321768260                                        |
c |  Weight of hard clauses: 167313                                           |
c |  Number of soft clauses: 6496                                             |
c |  Number of unit soft clauses: 6496                                        |
c |  Maximum Cardinality (by unit): 1338496      (1338496     )               |
c last restart ## conflicts  :  8 434280 
o 1691 | cpuTime 52.9482 s
c Sum of weights = 167312
c A number of soft clauses remained = 812
c MRWTO encoding for Pseudo-Boolean Constraints
c sizeMax=1691
c No.0 Divisor=12	generated by pow1
c No.1 Divisor=12	generated by pow1
c No.2 Divisor=12	generated by pow1
c p0= 12	p1= 12	p2= 12	
c number of digits = 4
c linkingVar[0].size = 12, linkingVar[1].size = 12, linkingVar[2].size = 12, linkingVar[3].size = 1, 
c Pseudo-Boolean Constraints: 19135 variables and 188610 clauses
c Sum of weights = 167312
c A number of soft clauses remained = 812
c MRWTO encoding for Pseudo-Boolean Constraints
c sizeMax=1691
c No.0 Divisor=12	generated by pow1
c No.1 Divisor=12	generated by pow1
c No.2 Divisor=12	generated by pow1
c p0= 12	p1= 12	p2= 12	
c number of digits = 4
c linkingVar[0].size = 12, linkingVar[1].size = 12, linkingVar[2].size = 12, linkingVar[3].size = 1, 
c Pseudo-Boolean Constraints: 19135 variables and 188610 clauses
c Sum of weights = 167312
c A number of soft clauses remained = 812
c MRWTO encoding for Pseudo-Boolean Constraints
c sizeMax=1691
c No.0 Divisor=12	generated by pow1
c No.1 Divisor=12	generated by pow1
c No.2 Divisor=12	generated by pow1
c p0= 12	p1= 12	p2= 12	
c number of digits = 4
c linkingVar[0].size = 12, linkingVar[1].size = 12, linkingVar[2].size = 12, linkingVar[3].size = 1, 
c Pseudo-Boolean Constraints: 19135 variables and 188610 clauses
c Sum of weights = 167312
c A number of soft clauses remained = 812
c MRWTO encoding for Pseudo-Boolean Constraints
c sizeMax=1691
c No.0 Divisor=12	generated by pow1
c No.1 Divisor=12	generated by pow1
c No.2 Divisor=12	generated by pow1
c p0= 12	p1= 12	p2= 12	
c number of digits = 4
c linkingVar[0].size = 12, linkingVar[1].size = 12, linkingVar[2].size = 12, linkingVar[3].size = 1, 
c Pseudo-Boolean Constraints: 19135 variables and 188610 clauses
c Sum of weights = 167312
c A number of soft clauses remained = 812
c MRWTO encoding for Pseudo-Boolean Constraints
c sizeMax=1691
c No.0 Divisor=12	generated by pow1
c No.1 Divisor=12	generated by pow1
c No.2 Divisor=12	generated by pow1
c p0= 12	p1= 12	p2= 12	
c number of digits = 4
c linkingVar[0].size = 12, linkingVar[1].size = 12, linkingVar[2].size = 12, linkingVar[3].size = 1, 
c Pseudo-Boolean Constraints: 19135 variables and 188610 clauses
c Sum of weights = 167312
c A number of soft clauses remained = 812
c MRWTO encoding for Pseudo-Boolean Constraints
c sizeMax=1691
c No.0 Divisor=12	generated by pow1
c No.1 Divisor=12	generated by pow1
c No.2 Divisor=12	generated by pow1
c p0= 12	p1= 12	p2= 12	
c number of digits = 4
c linkingVar[0].size = 12, linkingVar[1].size = 12, linkingVar[2].size = 12, linkingVar[3].size = 1, 
c Pseudo-Boolean Constraints: 19135 variables and 188610 clauses
c Sum of weights = 167312
c A number of soft clauses remained = 812
c MRWTO encoding for Pseudo-Boolean Constraints
c sizeMax=1691
c No.0 Divisor=12	generated by pow1
c No.1 Divisor=12	generated by pow1
c No.2 Divisor=12	generated by pow1
c p0= 12	p1= 12	p2= 12	
c number of digits = 4
c linkingVar[0].size = 12, linkingVar[1].size = 12, linkingVar[2].size = 12, linkingVar[3].size = 1, 
c Pseudo-Boolean Constraints: 19135 variables and 188610 clauses
c Sum of weights = 167312
c A number of soft clauses remained = 812
c MRWTO encoding for Pseudo-Boolean Constraints
c sizeMax=1691
c No.0 Divisor=12	generated by pow1
c No.1 Divisor=12	generated by pow1
c No.2 Divisor=12	generated by pow1
c p0= 12	p1= 12	p2= 12	
c number of digits = 4
c linkingVar[0].size = 12, linkingVar[1].size = 12, linkingVar[2].size = 12, linkingVar[3].size = 1, 
c Pseudo-Boolean Constraints: 19135 variables and 188610 clauses
c last restart ## conflicts  :  440 445633 
o 1673 | cpuTime 146.351 s
c last restart ## conflicts  :  159 478568 
o 1400 | cpuTime 298.288 s
c last restart ## conflicts  :  1041 448167 
o 1289 | cpuTime 319.855 s
c last restart ## conflicts  :  998 441833 
o 1225 | cpuTime 474.54 s
c last restart ## conflicts  :  1120 468257 
o 1083 | cpuTime 639.129 s
c last restart ## conflicts  :  560 442806 
o 1022 | cpuTime 705.189 s
c last restart ## conflicts  :  518 467039 
o 958 | cpuTime 1132.32 s
s UNKNOWN
c Search is stopped by a limit (maybe time-limit)
cr positiVarArr: [ | 25@1(1->25) | 125@1(5->9) | 173@1(6->28) | 238@1(9->6) | 701@1(25->5) | 784@1(28->1) | 849@2(1->8) | 899@2(2->29) | 918@2(3->19) | 1046@2(8->2) | 1364@2(19->1) | 1656@2(29->3) | 1700@3(1->18) | 1770@3(4->1) | 2081@3(14->22) | 2189@3(18->14) | 2295@3(22->4) | 2549@4(1->26) | 2886@4(13->15) | 2930@4(15->1) | 3261@4(26->13) | 3387@5(1->23) | 3703@5(12->20) | 3811@5(16->12) | 3916@5(20->1) | 4018@5(23->16) | 4226@6(1->21) | 4490@6(10->24) | 4505@6(11->10) | 4796@6(21->11) | 4873@6(24->1) | 5063@7(1->17) | 5511@7(17->1) | 5894@8(1->7) | 6088@8(7->27) | 6642@8(27->1) | ]
cr the 1-th chain: [ 1->25->5->9->6->28->1 ] (#non-depot=5) {#cumul.=6}
cr the 2-th chain: [ 1->8->2->29->3->19->1 ] (#non-depot=5) {#cumul.=11}
cr the 3-th chain: [ 1->18->14->22->4->1 ] (#non-depot=4) {#cumul.=15}
cr the 4-th chain: [ 1->26->13->15->1 ] (#non-depot=3) {#cumul.=18}
cr the 5-th chain: [ 1->23->16->12->20->1 ] (#non-depot=4) {#cumul.=22}
cr the 6-th chain: [ 1->21->11->10->24->1 ] (#non-depot=4) {#cumul.=26}
cr the 7-th chain: [ 1->17->1 ] (#non-depot=1) {#cumul.=27}
cr the 8-th chain: [ 1->7->27->1 ] (#non-depot=2) {#cumul.=29}
c Latest Answer = 0 by 8 loops
c restarts              : 7387
c conflicts             : 1181843        (328 /sec)
c decisions             : 24014106       (0.00 % random) (6674 /sec)
c propagations          : 15085256621    (4192366 /sec)
c conflict literals     : 235729177      (24.37 % deleted)
c Memory used           : 20767.00 MB
c CPU time              : 3598.27 s
